543 5
10 10 10 10 10 

0 0 0 0 0 0 5 2 14 26 38 50 
0 0 0 0 0 0 3 3 8 12 
6 0 0 1 0 0 2 6 4 
8 0 0 1 0 0 1 5 
7 0 0 3 0 0 3 11 10 7 
8 0 0 4 0 0 3 11 10 7 
8 0 0 3 0 0 1 9 
5 0 0 6 0 0 1 9 
10 0 0 4 0 0 1 13 
1 0 0 1 0 0 1 13 
4 0 0 1 0 0 2 13 51 
10 0 0 1 0 0 1 13 
0 0 0 0 0 0 1 62 
0 0 0 0 0 0 5 15 17 18 20 24 
9 1 0 0 0 0 2 23 16 
10 2 0 0 0 0 1 19 
5 4 0 0 0 0 2 23 22 
7 2 0 0 0 0 2 23 22 
1 3 0 0 0 0 1 21 
10 6 0 0 0 0 1 21 
7 1 0 0 0 0 2 22 399 
8 1 0 0 0 0 1 25 
4 3 0 0 0 0 1 25 
5 2 0 0 0 0 1 25 
0 0 0 0 0 0 1 62 
0 0 0 0 0 0 3 27 32 36 
5 0 0 1 0 0 2 29 28 
7 0 0 2 0 0 3 35 34 30 
3 0 0 5 0 0 2 34 30 
8 0 0 2 0 0 1 31 
7 0 0 5 0 0 1 33 
9 0 0 1 0 0 1 33 
2 0 0 3 0 0 1 37 
8 0 0 2 0 0 1 37 
3 0 0 2 0 0 2 37 74 
6 0 0 2 0 0 1 37 
0 0 0 0 0 0 1 62 
0 0 0 0 0 0 5 39 41 43 47 48 
10 0 0 0 1 0 1 40 
6 0 0 0 3 0 2 46 42 
7 0 0 0 2 0 2 46 45 
5 0 0 0 3 0 1 44 
10 0 0 0 3 0 1 44 
2 0 0 0 2 0 1 45 
7 0 0 0 4 0 1 49 
7 0 0 0 3 0 2 49 398 
7 0 0 0 2 0 1 49 
9 0 0 0 2 0 1 49 
0 0 0 0 0 0 1 62 
0 0 0 0 0 0 2 51 52 
6 0 0 1 0 0 2 56 53 
3 0 0 1 0 0 2 56 53 
1 0 0 2 0 0 1 54 
9 0 0 3 0 0 5 60 59 58 55 464 
3 0 0 3 0 0 1 57 
10 0 0 4 0 0 1 57 
1 0 0 4 0 0 1 61 
3 0 0 2 0 0 1 61 
4 0 0 2 0 0 1 61 
7 0 0 3 0 0 1 61 
0 0 0 0 0 0 1 62 
0 0 0 0 0 0 5 63 105 147 189 231 
0 0 0 0 0 0 2 64 66 
1 1 1 0 1 1 1 65 
3 1 4 0 2 3 2 68 67 
2 4 2 0 2 2 2 69 67 
8 2 1 0 3 4 4 79 72 71 70 
6 3 4 0 2 2 3 72 71 69 
1 4 2 0 1 1 1 70 
2 2 3 0 3 1 3 77 75 73 
5 2 5 0 3 2 3 83 77 74 
10 2 4 0 1 3 3 83 77 74 
8 3 1 0 1 4 2 83 74 
6 2 2 0 3 2 1 76 
3 4 3 0 1 4 1 76 
1 1 1 0 1 2 2 85 78 
10 3 2 0 5 1 2 85 78 
4 2 2 0 4 2 3 87 82 80 
4 2 2 0 1 2 3 88 84 83 
5 4 1 0 2 4 1 81 
3 1 2 0 2 3 3 92 88 84 
9 4 4 0 4 3 3 94 92 84 
3 2 2 0 2 2 3 94 89 87 
7 2 2 0 6 3 1 86 
5 4 4 0 2 5 3 95 94 89 
7 1 3 0 4 4 2 93 89 
2 1 2 0 3 3 2 92 90 
9 2 4 0 7 4 3 95 94 91 
1 4 5 0 2 4 2 96 90 
7 2 1 0 1 2 1 91 
2 3 2 0 5 2 2 98 97 
5 3 3 0 2 1 1 95 
8 3 3 0 1 1 1 95 
7 2 4 0 1 4 2 103 97 
7 2 2 0 2 2 1 96 
6 3 1 0 1 2 3 103 102 99 
7 4 2 0 4 1 2 102 99 
3 2 3 0 2 2 3 103 102 101 
9 4 3 0 1 3 1 100 
4 3 3 0 4 2 1 101 
5 2 2 0 2 3 2 104 440 
3 2 1 0 4 3 1 104 
6 2 2 0 2 1 1 104 
0 0 0 0 0 0 1 543 
0 0 0 0 0 0 2 106 109 
9 1 1 0 1 1 1 107 
1 1 2 0 2 3 2 110 108 
9 3 3 0 3 2 4 123 118 115 111 
1 2 1 0 3 1 3 123 115 112 
1 1 2 0 3 2 4 131 123 117 113 
4 4 2 0 3 2 1 112 
6 1 2 0 3 1 2 117 113 
4 2 2 0 2 3 2 127 114 
9 2 4 0 3 3 1 116 
2 1 2 0 2 1 1 117 
2 5 5 0 3 1 3 130 126 119 
8 6 2 0 1 2 3 130 126 119 
4 3 3 0 3 2 5 136 130 126 122 120 
3 2 2 0 3 2 3 136 122 120 
8 5 3 0 2 4 1 121 
4 3 2 0 5 3 4 145 140 133 124 
9 2 4 0 4 5 2 133 124 
5 1 2 0 2 3 5 140 136 130 129 469 
10 2 3 0 1 3 2 144 125 
5 3 4 0 3 3 2 138 128 
4 3 1 0 2 4 2 145 129 
8 3 1 0 3 4 2 137 130 
5 1 1 0 2 5 1 129 
5 2 3 0 3 3 1 132 
3 4 3 0 1 2 3 143 138 135 
5 2 3 0 4 2 3 143 138 135 
6 1 3 0 2 2 2 142 134 
4 1 3 0 4 5 2 138 135 
2 2 3 0 4 2 2 143 137 
8 4 3 0 1 1 2 142 139 
8 3 3 0 4 2 1 137 
4 3 2 0 2 3 1 139 
3 3 1 0 3 3 1 139 
2 2 4 0 1 2 1 141 
9 3 2 0 2 2 1 142 
2 3 1 0 3 3 1 146 
10 3 6 0 2 1 1 146 
9 1 1 0 3 2 1 146 
7 4 2 0 1 2 1 146 
4 2 3 0 1 3 1 146 
0 0 0 0 0 0 1 543 
0 0 0 0 0 0 3 148 149 459 
8 1 1 1 1 0 1 150 
1 5 5 1 2 0 1 150 
7 1 2 3 3 0 2 152 151 
2 1 3 2 3 0 4 163 156 155 154 
5 1 5 2 4 0 3 156 155 153 
5 1 5 4 2 0 1 154 
8 4 2 4 1 0 3 159 158 157 
1 1 1 2 3 0 2 159 157 
2 1 1 4 2 0 2 160 159 
4 5 1 4 3 0 2 164 160 
9 3 3 1 3 0 2 164 160 
3 3 1 3 3 0 2 164 161 
7 4 4 1 2 0 1 161 
8 4 1 1 4 0 1 162 
4 3 1 4 3 0 2 166 165 
3 2 4 3 3 0 1 164 
7 2 3 2 3 0 2 169 166 
8 5 3 3 2 0 3 170 169 168 
7 3 1 2 1 0 2 168 167 
10 3 6 3 1 0 3 174 172 170 
2 1 2 2 6 0 3 174 173 171 
4 1 2 2 2 0 2 172 171 
9 1 1 4 2 0 1 171 
7 4 1 3 4 0 2 177 175 
9 4 1 1 2 0 1 173 
5 1 1 3 1 0 2 179 176 
8 2 1 5 4 0 2 178 177 
2 3 2 2 2 0 1 176 
3 4 3 5 3 0 2 180 178 
10 1 4 2 2 0 2 181 179 
10 1 2 2 4 0 2 182 181 
2 3 5 3 1 0 2 182 180 
7 2 1 2 1 0 2 185 183 
8 1 2 1 3 0 2 185 183 
1 2 3 2 1 0 3 187 185 184 
4 5 4 2 1 0 2 187 184 
6 5 1 3 2 0 1 186 
8 1 3 2 5 0 1 186 
10 2 6 1 2 0 1 188 
4 3 2 3 3 0 1 188 
0 0 0 0 0 0 1 543 
0 0 0 0 0 0 2 190 192 
8 1 0 1 1 1 1 191 
7 3 0 3 4 2 2 194 193 
5 2 0 2 4 3 2 195 193 
9 5 0 3 3 1 4 205 198 197 196 
7 2 0 3 6 3 3 198 197 195 
4 1 0 2 3 2 1 196 
1 2 0 4 1 3 3 201 200 199 
4 3 0 2 2 2 2 202 200 
4 3 0 2 2 3 2 202 200 
4 2 0 3 3 2 2 206 202 
9 3 0 3 4 2 2 206 203 
7 2 0 3 1 2 2 206 203 
4 3 0 3 1 1 1 203 
7 1 0 2 1 6 1 204 
9 3 0 2 4 2 4 211 210 209 207 
4 1 0 1 2 3 1 206 
3 2 0 3 4 3 2 210 208 
2 2 0 2 2 2 1 208 
1 2 0 1 4 2 3 215 214 212 
4 5 0 1 1 3 3 220 215 212 
9 4 0 1 1 5 3 219 216 215 
1 2 0 3 3 2 3 220 219 216 
5 1 0 2 2 1 1 213 
3 2 0 2 2 2 2 219 216 
5 5 0 3 4 2 3 221 220 218 
4 1 0 5 1 2 2 221 218 
4 2 0 2 2 2 1 217 
3 2 0 5 2 2 3 222 218 414 
4 4 0 4 2 1 2 224 223 
9 1 0 3 5 3 1 221 
9 1 0 2 4 6 2 229 223 
2 3 0 3 1 2 1 222 
10 3 0 2 1 3 3 229 226 225 
2 3 0 2 1 2 2 226 225 
10 1 0 3 2 3 2 229 226 
6 2 0 2 3 4 1 227 
4 5 0 3 5 1 1 228 
9 5 0 1 2 3 1 228 
3 2 0 3 2 1 1 230 
1 3 0 3 2 5 1 230 
0 0 0 0 0 0 1 543 
0 0 0 0 0 0 3 232 234 235 
3 0 1 0 0 0 1 233 
10 0 3 0 0 0 3 241 238 236 
5 0 3 0 0 0 3 241 240 238 
2 0 4 0 0 0 2 240 238 
1 0 1 0 0 0 2 237 440 
5 0 4 0 0 0 2 240 239 
3 0 2 0 0 0 1 239 
1 0 1 0 0 0 1 242 
6 0 2 0 0 0 1 242 
8 0 4 0 0 0 1 242 
0 0 0 0 0 0 5 243 255 287 319 351 
0 0 0 0 0 0 2 244 245 
2 0 0 0 0 1 2 248 247 
6 0 0 0 0 2 2 246 271 
7 0 0 0 0 2 1 247 
6 0 0 0 0 3 2 250 249 
6 0 0 0 0 3 3 253 252 250 
4 0 0 0 0 3 3 253 252 251 
1 0 0 0 0 2 1 251 
8 0 0 0 0 3 1 254 
3 0 0 0 0 5 1 254 
1 0 0 0 0 1 1 254 
0 0 0 0 0 0 5 383 405 417 439 461 
0 0 0 0 0 0 3 256 267 285 
6 1 0 1 0 1 2 284 257 
2 1 0 2 0 3 2 282 258 
5 4 0 4 0 3 1 259 
5 4 0 3 0 4 3 281 279 260 
10 1 0 6 0 1 2 280 261 
10 4 0 1 0 2 3 278 277 262 
1 2 0 1 0 3 1 263 
3 1 0 2 0 4 2 276 264 
4 2 0 3 0 6 1 265 
1 3 0 1 0 2 1 266 
10 1 0 2 0 1 2 275 268 
10 1 0 2 0 1 5 283 279 277 272 269 
6 3 0 2 0 5 4 274 273 272 269 
5 1 0 1 0 1 1 270 
1 3 0 4 0 1 1 271 
9 2 0 2 0 1 2 286 522 
2 2 0 2 0 1 1 286 
6 4 0 3 0 2 1 286 
2 1 0 3 0 3 1 286 
6 5 0 3 0 2 1 286 
10 3 0 3 0 1 1 286 
2 5 0 2 0 3 1 286 
4 3 0 5 0 2 1 286 
10 3 0 1 0 2 1 286 
2 2 0 4 0 6 1 286 
5 3 0 1 0 4 1 286 
2 3 0 3 0 3 1 286 
1 3 0 3 0 3 1 286 
4 2 0 4 0 2 1 286 
9 2 0 1 0 2 1 286 
0 0 0 0 0 0 1 543 
0 0 0 0 0 0 3 288 289 301 
5 1 0 0 1 1 2 307 290 
8 1 0 0 3 2 2 307 290 
2 4 0 0 1 3 2 294 291 
4 2 0 0 1 3 2 297 292 
8 2 0 0 2 2 2 308 293 
5 4 0 0 3 1 2 304 295 
8 4 0 0 4 3 2 297 296 
3 1 0 0 4 3 1 296 
10 4 0 0 3 2 3 312 303 298 
7 2 0 0 1 3 3 312 309 299 
1 3 0 0 2 3 2 309 299 
7 3 0 0 3 4 1 300 
4 4 0 0 3 1 1 302 
9 1 0 0 4 6 1 302 
4 2 0 0 1 2 2 316 305 
1 3 0 0 2 2 2 316 305 
10 1 0 0 3 3 4 317 316 311 306 
1 2 0 0 2 2 3 317 311 306 
4 2 0 0 2 1 3 315 314 310 
9 1 0 0 3 3 2 314 310 
1 4 0 0 2 2 2 314 313 
5 2 0 0 2 1 1 310 
6 2 0 0 1 4 1 313 
7 3 0 0 2 3 1 314 
8 2 0 0 4 2 1 316 
10 1 0 0 4 2 1 318 
4 3 0 0 3 2 1 318 
3 5 0 0 2 5 2 318 408 
5 3 0 0 5 2 1 318 
9 3 0 0 2 2 1 318 
0 0 0 0 0 0 1 543 
0 0 0 0 0 0 3 320 321 330 
10 0 1 0 1 1 2 337 322 
5 0 2 0 4 1 2 337 322 
2 0 3 0 4 2 2 326 323 
4 0 3 0 2 2 2 329 324 
2 0 5 0 3 3 2 339 325 
10 0 2 0 3 1 2 336 327 
10 0 2 0 4 5 2 329 328 
9 0 3 0 3 4 1 328 
8 0 1 0 1 2 3 344 335 331 
7 0 2 0 2 2 2 344 331 
4 0 1 0 3 5 4 341 339 335 334 
1 0 3 0 3 4 2 341 332 
1 0 3 0 2 4 1 333 
9 0 2 0 1 4 1 334 
7 0 1 0 4 1 2 349 338 
9 0 3 0 2 3 2 349 338 
10 0 3 0 1 1 2 349 338 
10 0 6 0 2 1 1 338 
9 0 2 0 2 3 3 348 343 340 
9 0 1 0 3 4 5 348 347 343 342 539 
5 0 2 0 2 3 3 347 346 342 
10 0 2 0 2 1 1 342 
1 0 2 0 2 4 1 345 
3 0 2 0 3 2 1 346 
6 0 4 0 3 2 1 349 
6 0 4 0 1 1 1 350 
10 0 2 0 3 3 1 350 
4 0 3 0 1 2 1 350 
4 0 3 0 4 1 1 350 
8 0 2 0 4 3 1 350 
0 0 0 0 0 0 1 543 
0 0 0 0 0 0 3 352 353 366 
2 1 0 1 1 0 2 371 354 
10 2 0 2 1 0 2 371 354 
10 1 0 4 1 0 2 358 355 
3 3 0 2 2 0 2 361 356 
6 1 0 1 5 0 2 376 357 
5 3 0 5 3 0 2 369 359 
10 1 0 1 2 0 2 361 360 
2 3 0 3 5 0 1 360 
9 2 0 3 4 0 3 375 365 362 
1 3 0 1 2 0 3 375 372 363 
3 3 0 4 3 0 3 372 363 534 
6 4 0 2 2 0 1 364 
9 3 0 4 1 0 2 381 367 
7 1 0 4 1 0 2 381 368 
9 3 0 1 5 0 2 381 368 
9 4 0 2 3 0 1 368 
2 2 0 4 2 0 3 380 374 370 
1 3 0 2 1 0 3 381 380 370 
9 3 0 2 4 0 3 379 377 373 
4 5 0 4 2 0 2 377 373 
6 4 0 4 2 0 1 373 
3 2 0 1 1 0 1 378 
3 3 0 1 2 0 1 377 
5 1 0 3 3 0 1 381 
7 1 0 2 1 0 1 377 
2 2 0 2 4 0 1 382 
2 3 0 5 5 0 1 382 
10 1 0 1 2 0 1 382 
5 4 0 1 3 0 1 382 
10 3 0 3 2 0 1 382 
0 0 0 0 0 0 1 543 
0 0 0 0 0 0 2 384 385 
8 0 1 0 0 1 2 388 387 
8 0 6 0 0 3 1 386 
4 0 2 0 0 2 2 389 387 
1 0 2 0 0 4 1 390 
3 0 2 0 0 4 1 389 
6 0 3 0 0 3 2 394 391 
6 0 3 0 0 2 2 394 391 
8 0 4 0 0 1 2 393 392 
6 0 3 0 0 2 4 400 399 397 396 
3 0 4 0 0 4 2 396 395 
3 0 2 0 0 2 2 396 395 
3 0 1 0 0 3 4 403 400 399 398 
6 0 1 0 0 3 2 403 398 
2 0 3 0 0 2 1 398 
8 0 2 0 0 2 1 401 
4 0 2 0 0 1 1 401 
9 0 2 0 0 4 2 401 523 
1 0 4 0 0 3 1 402 
7 0 2 0 0 1 1 404 
9 0 1 0 0 3 1 404 
0 0 0 0 0 0 1 543 
0 0 0 0 0 0 2 406 407 
3 0 0 1 0 0 2 412 408 
2 0 0 2 0 0 5 415 412 410 409 435 
3 0 0 4 0 0 3 415 410 409 
9 0 0 2 0 0 2 414 413 
7 0 0 1 0 0 1 411 
1 0 0 3 0 0 1 413 
3 0 0 3 0 0 1 414 
10 0 0 3 0 0 1 416 
5 0 0 3 0 0 1 416 
10 0 0 3 0 0 1 416 
0 0 0 0 0 0 5 483 495 507 519 531 
0 0 0 0 0 0 4 418 423 424 437 
1 0 0 0 1 1 2 430 419 
10 0 0 0 1 2 2 436 420 
4 0 0 0 2 1 4 435 434 428 421 
1 0 0 0 2 1 2 432 422 
8 0 0 0 5 2 2 433 425 
8 0 0 0 2 4 3 432 430 429 
7 0 0 0 2 1 2 432 427 
6 0 0 0 3 5 1 426 
9 0 0 0 2 3 1 427 
10 0 0 0 2 2 1 429 
1 0 0 0 4 2 1 429 
8 0 0 0 3 1 1 431 
8 0 0 0 4 2 1 431 
8 0 0 0 2 4 1 438 
7 0 0 0 4 2 2 438 499 
1 0 0 0 2 5 1 438 
2 0 0 0 1 5 1 438 
7 0 0 0 2 3 1 438 
7 0 0 0 5 2 1 438 
10 0 0 0 1 2 1 438 
0 0 0 0 0 0 1 543 
0 0 0 0 0 0 1 440 
5 1 0 0 0 1 1 441 
9 4 0 0 0 2 3 446 443 442 
6 4 0 0 0 3 1 444 
4 2 0 0 0 2 1 444 
10 1 0 0 0 4 2 454 445 
1 2 0 0 0 2 5 459 451 449 448 447 
5 4 0 0 0 2 3 459 449 448 
4 3 0 0 0 4 1 450 
6 3 0 0 0 1 2 458 452 
4 3 0 0 0 2 2 458 452 
8 2 0 0 0 2 2 458 452 
6 2 0 0 0 2 2 458 452 
4 3 0 0 0 3 2 455 453 
8 3 0 0 0 1 2 457 456 
3 4 0 0 0 3 2 459 455 
4 2 0 0 0 4 1 460 
3 1 0 0 0 2 1 460 
3 2 0 0 0 3 1 460 
9 3 0 0 0 3 1 460 
8 1 0 0 0 4 1 460 
0 0 0 0 0 0 1 543 
0 0 0 0 0 0 7 462 476 477 478 479 480 481 
4 0 1 1 0 0 3 475 474 463 
1 0 2 1 0 0 3 473 472 464 
7 0 3 3 0 0 1 465 
7 0 2 6 0 0 1 466 
9 0 3 3 0 0 1 467 
4 0 2 2 0 0 1 468 
5 0 3 3 0 0 1 469 
5 0 1 4 0 0 1 470 
7 0 3 3 0 0 1 471 
3 0 1 3 0 0 1 482 
4 0 1 2 0 0 1 482 
1 0 3 3 0 0 1 482 
1 0 5 3 0 0 1 482 
6 0 2 1 0 0 1 482 
5 0 3 4 0 0 1 482 
8 0 5 1 0 0 1 482 
7 0 2 1 0 0 1 482 
3 0 3 3 0 0 1 482 
2 0 2 2 0 0 1 482 
3 0 3 1 0 0 1 482 
0 0 0 0 0 0 1 543 
0 0 0 0 0 0 4 484 486 488 491 
8 0 0 1 0 0 2 493 485 
4 0 0 4 0 0 1 487 
5 0 0 4 0 0 1 487 
2 0 0 3 0 0 1 489 
5 0 0 2 0 0 1 490 
1 0 0 1 0 0 1 492 
6 0 0 2 0 0 1 493 
7 0 0 3 0 0 1 492 
2 0 0 2 0 0 1 494 
3 0 0 3 0 0 1 494 
0 0 0 0 0 0 1 543 
0 0 0 0 0 0 3 496 497 500 
6 0 1 0 0 0 2 499 498 
10 0 3 0 0 0 2 499 498 
8 0 1 0 0 0 2 502 501 
10 0 3 0 0 0 2 504 502 
5 0 1 0 0 0 2 503 501 
6 0 3 0 0 0 1 504 
4 0 2 0 0 0 1 503 
8 0 4 0 0 0 1 505 
4 0 3 0 0 0 1 505 
9 0 4 0 0 0 1 506 
0 0 0 0 0 0 1 543 
0 0 0 0 0 0 4 508 510 511 514 
7 0 0 1 0 0 2 516 509 
1 0 0 2 0 0 2 517 512 
4 0 0 1 0 0 2 517 512 
4 0 0 3 0 0 2 516 512 
4 0 0 4 0 0 1 513 
8 0 0 2 0 0 1 515 
4 0 0 3 0 0 1 516 
2 0 0 2 0 0 1 518 
6 0 0 4 0 0 1 518 
6 0 0 3 0 0 1 518 
0 0 0 0 0 0 1 543 
0 0 0 0 0 0 2 520 521 
3 1 0 0 0 0 2 523 522 
8 1 0 0 0 0 2 524 523 
2 2 0 0 0 0 3 529 525 524 
10 2 0 0 0 0 3 529 527 525 
6 4 0 0 0 0 2 527 526 
8 2 0 0 0 0 1 526 
4 2 0 0 0 0 1 528 
9 4 0 0 0 0 1 528 
5 4 0 0 0 0 1 530 
2 3 0 0 0 0 1 530 
0 0 0 0 0 0 1 543 
0 0 0 0 0 0 4 532 535 537 541 
4 0 0 1 0 0 2 540 533 
5 0 0 2 0 0 1 534 
3 0 0 5 0 0 2 539 536 
9 0 0 3 0 0 2 540 538 
9 0 0 3 0 0 1 538 
3 0 0 2 0 0 1 538 
2 0 0 3 0 0 1 542 
2 0 0 3 0 0 1 542 
10 0 0 2 0 0 1 542 
9 0 0 1 0 0 1 542 
0 0 0 0 0 0 1 543 
0 0 0 0 0 0 0 
